\* Problem: Unknown *\

Maximize
 obj: + xp_0_0 + xp_1_0 + xp_1_1 + xp_2_0 + xp_2_1 + xp_3_0 + xp_3_1
 + xp_3_2 + xp_4_0 + xp_4_1 + xp_5_0 + xp_6_0 + xp_7_0 + xp_8_0 + xp_9_0
 + xp_9_1 + xp_10_0 + xp_11_0 + xp_11_1 + xp_12_0 + xp_12_1 + xp_13_0
 + xp_13_1 + xp_13_2 + xp_14_0 + xp_14_1 + xp_15_0 + xp_16_0 + xp_17_0
 + xp_17_1 + xp_18_0 + xp_18_1 + xp_18_2 + xp_18_3 + xp_19_0 + xp_19_1
 + xp_20_0 + xp_21_0 + xp_22_0 + xp_22_1 + xp_23_0 + xp_24_0 + xp_24_1
 + xp_24_2 + xp_25_0 + xp_26_0 + xp_26_1 + xp_26_2 + xp_27_0 + xp_27_1
 + xp_28_0 + xp_28_1 + xp_29_0 + xp_30_0 + xp_30_1 + xp_30_2 + xp_31_0
 + xp_32_0 + xp_32_1 + xp_33_0 + xp_34_0 + xp_34_1 + xp_35_0 + xp_36_0
 + xp_37_0 + xp_38_0 + xp_38_1 + xp_39_0 + xp_40_0 + xp_40_1 + xp_40_2
 + xp_41_0 + xp_41_1 + xp_42_0 + xp_42_1 + xp_42_2 + xp_43_0 + xp_44_0
 + xp_44_1 + xp_45_0 + xp_45_1 + xp_46_0 + xp_47_0 + xp_48_0 + xp_48_1
 + xp_49_0 + xp_50_0 + xp_50_1 + xp_51_0 + xp_52_0 + xp_53_0 + xp_53_1
 + xp_54_0 + xp_55_0 + xp_56_0 + xp_57_0 + xp_57_1 + xp_58_0 + xp_58_1
 + xp_59_0 + xp_60_0 + xp_60_1 + xp_61_0 + xp_61_1 + xp_62_0 + xp_63_0
 + xp_63_1 + xp_64_0 + xp_65_0 + xp_65_1 + xp_66_0 + xp_67_0 + xp_67_1
 + xp_68_0 + xp_68_1 + xp_69_0 + xp_70_0 + xp_71_0 + xp_72_0 + xp_73_0
 + xp_74_0 + xp_75_0 + xp_76_0 + xp_77_0 + xp_77_1 + xp_78_0 + xp_78_1
 + xp_78_2 + xp_78_3 + xp_78_4 + xp_79_0 + xp_79_1 + xp_79_2 + xp_80_0
 + xp_80_1 + xp_81_0 + xp_81_1 + xp_81_2 + xp_82_0 + xp_82_1 + xp_82_2
 + xp_83_0 + xp_83_1 + xp_84_0 + xp_85_0 + xp_85_1 + xp_85_2 + xp_85_3
 + xp_86_0 + xp_86_1 + xp_87_0 + xp_88_0 + xp_88_1 + xp_89_0 + xp_90_0
 + xp_90_1 + xp_90_2 + xp_91_0 + xp_91_1 + xp_91_2 + xp_92_0 + xp_92_1
 + xp_93_0 + xp_94_0 + xp_94_1 + xp_94_2 + xp_94_3 + xp_95_0 + xp_95_1
 + xp_95_2 + xp_96_0 + xp_96_1 + xp_97_0 + xp_98_0 + xp_98_1 + xp_98_2
 + xp_99_0 + xp_99_1 + xp_99_2 + xp_100_0 + xp_101_0 + xp_101_1
 + xp_102_0 + xp_103_0 + xp_104_0 + xp_104_1 + xp_105_0 + xp_105_1
 + xp_106_0 + xp_106_1 + xp_107_0 + xp_108_0 + xp_108_1 + xp_108_2
 + xp_109_0 + xp_109_1 + xp_110_0 + xp_111_0 + xp_111_1 + xp_112_0
 + xp_113_0 + xp_114_0 + xp_115_0 + xp_115_1 + xp_116_0 + xp_116_1
 + xp_117_0 + xp_118_0 + xp_119_0 + xp_119_1 + xp_119_2 + xp_120_0
 + xp_120_1 + xp_121_0 + xp_122_0 + xp_123_0 + xp_123_1 + xp_124_0
 + xp_124_1 + xp_125_0 + xp_125_1 + xp_126_0 + xp_126_1 + xp_126_2
 + xp_127_0 + xp_127_1 + xp_128_0 + xp_128_1 + xp_128_2 + xp_129_0
 + xp_129_1 + xp_130_0 + xp_131_0 + xp_131_1 + xp_131_2

Subject To
 r_1: + xp_128_2 + xp_128_1 + xp_123_1 + xp_122_0 + xp_121_0 + xp_108_1
 + xp_107_0 + xp_78_3 + xp_67_1 + xp_57_1 + xp_40_2 + xp_40_1 + xp_25_0
 + xp_22_1 + xp_18_3 + xp_18_2 + xp_18_1 + xp_16_0 + xp_13_2 + xp_13_1
 + xp_4_1 + xp_4_0 <= 38895.0789229341
 r_2: + xp_131_2 + xp_131_0 + xp_127_1 + xp_126_1 + xp_120_1 + xp_120_0
 + xp_94_3 + xp_94_2 + xp_94_1 + xp_93_0 + xp_90_1 + xp_85_3 + xp_85_2
 + xp_85_1 + xp_85_0 + xp_77_1 + xp_75_0 + xp_71_0 + xp_66_0 + xp_65_1
 + xp_65_0 + xp_61_1 + xp_55_0 + xp_52_0 + xp_48_1 + xp_48_0 + xp_42_2
 + xp_42_1 + xp_38_1 + xp_32_0 + xp_28_1 + xp_28_0 + xp_24_2 + xp_24_0
 + xp_19_1 + xp_19_0 + xp_12_1 + xp_1_1 <= 34729.5900792284
 r_3: + xp_124_1 + xp_114_0 + xp_105_1 + xp_95_2 + xp_91_2 + xp_85_2
 + xp_83_1 + xp_79_2 + xp_76_0 + xp_58_1 + xp_41_1 + xp_34_0 + xp_30_2
 + xp_26_2 + xp_24_2 <= 36974.2913645353
 r_4: + xp_119_2 + xp_117_0 + xp_104_1 + xp_95_1 + xp_95_0 + xp_91_1
 + xp_91_0 + xp_88_1 + xp_84_0 + xp_82_1 + xp_81_2 + xp_79_1 + xp_79_0
 + xp_78_4 + xp_46_0 + xp_44_1 + xp_43_0 + xp_40_2 + xp_40_1 + xp_40_0
 + xp_34_1 + xp_27_1 + xp_3_2 <= 35516.1437016826
 r_5: + xp_130_0 + xp_119_2 + xp_104_1 + xp_99_0 + xp_88_1 + xp_82_1
 + xp_81_2 + xp_78_4 + xp_44_1 + xp_27_1 + xp_7_0 + xp_3_2 + xp_2_0
 <= 36974.2913645353
 r_6: + xp_126_2 + xp_119_0 + xp_114_0 + xp_95_2 + xp_92_1 + xp_91_2
 + xp_83_1 + xp_83_0 + xp_82_2 + xp_81_0 + xp_79_2 + xp_70_0 + xp_68_1
 + xp_58_1 + xp_53_0 + xp_48_1 + xp_45_0 + xp_34_0 + xp_32_1 + xp_30_2
 + xp_30_1 + xp_18_3 <= 38762.5113739763
 r_7: + xp_119_1 + xp_111_1 + xp_104_0 + xp_88_0 + xp_82_0 + xp_81_1
 + xp_78_2 + xp_53_1 + xp_50_1 + xp_45_1 + xp_44_0 + xp_27_0 + xp_18_2
 + xp_18_1 + xp_18_0 + xp_4_1 + xp_3_1 <= 35516.1437016826
 r_8: + xp_131_2 + xp_131_0 + xp_127_1 + xp_126_1 + xp_120_1 + xp_120_0
 + xp_118_0 + xp_103_0 + xp_94_3 + xp_94_2 + xp_94_1 + xp_90_1 + xp_77_1
 + xp_71_0 + xp_61_1 + xp_55_0 + xp_42_2 + xp_42_1 + xp_38_1 + xp_32_0
 + xp_24_2 + xp_24_0 + xp_12_1 + xp_1_1 <= 38895.0789229341
 r_9: + xp_131_1 + xp_127_0 + xp_123_1 + xp_122_0 + xp_108_1 + xp_78_3
 + xp_77_0 + xp_67_1 + xp_57_1 + xp_42_0 + xp_33_0 + xp_32_1 + xp_24_1
 <= 39648.3971044467
 r_10: + xp_111_1 + xp_106_0 + xp_99_0 + xp_98_0 + xp_94_1 + xp_88_1
 + xp_88_0 + xp_85_0 + xp_78_4 + xp_78_2 + xp_50_1 + xp_26_0 + xp_24_0
 + xp_8_0 + xp_7_0 + xp_4_1 + xp_3_2 + xp_3_1 + xp_2_0
 <= 38762.5113739763
 r_11: + xp_119_0 + xp_112_0 + xp_111_0 + xp_95_2 + xp_91_2 + xp_82_2
 + xp_81_0 + xp_79_2 + xp_78_3 + xp_78_1 + xp_78_0 + xp_59_0 + xp_53_0
 + xp_50_0 + xp_49_0 + xp_45_0 + xp_34_0 + xp_18_3 + xp_4_0 + xp_3_0
 <= 35958.6563307494
 r_12: + xp_129_1 + xp_128_1 + xp_128_0 + xp_123_0 + xp_119_1 + xp_117_0
 + xp_111_1 + xp_108_2 + xp_101_0 + xp_95_0 + xp_91_1 + xp_82_1
 + xp_82_0 + xp_81_1 + xp_80_1 + xp_79_1 + xp_78_4 + xp_78_2 + xp_78_0
 + xp_73_0 + xp_63_1 + xp_60_1 + xp_50_1 + xp_46_0 + xp_45_1 + xp_44_1
 + xp_44_0 + xp_40_1 + xp_40_0 + xp_18_1 + xp_18_0 + xp_17_1 + xp_15_0
 + xp_14_0 + xp_13_1 + xp_13_0 + xp_9_0 + xp_4_1 <= 35651.3500710564
 r_13: + xp_129_0 + xp_128_2 + xp_123_1 + xp_120_1 + xp_119_2 + xp_109_1
 + xp_101_1 + xp_100_0 + xp_96_1 + xp_95_1 + xp_91_0 + xp_90_0 + xp_81_2
 + xp_80_0 + xp_79_0 + xp_68_0 + xp_63_0 + xp_60_0 + xp_53_1 + xp_40_2
 + xp_34_1 + xp_31_0 + xp_30_0 + xp_18_2 + xp_17_0 + xp_13_2 + xp_9_1
 <= 35958.6563307494
 r_14: + xp_131_2 + xp_131_1 + xp_131_0 + xp_126_2 + xp_125_1 + xp_125_0
 + xp_124_1 + xp_124_0 + xp_115_1 + xp_115_0 + xp_106_1 + xp_99_2
 + xp_99_1 + xp_98_2 + xp_98_1 + xp_94_3 + xp_94_2 + xp_94_0 + xp_92_1
 + xp_86_1 + xp_86_0 + xp_85_3 + xp_85_2 + xp_85_1 + xp_77_1 + xp_77_0
 + xp_68_1 + xp_65_1 + xp_65_0 + xp_58_1 + xp_56_0 + xp_51_0 + xp_48_1
 + xp_41_1 + xp_41_0 + xp_38_1 + xp_38_0 + xp_35_0 + xp_32_1 + xp_30_2
 + xp_30_1 + xp_26_2 + xp_26_1 + xp_24_2 + xp_24_1 + xp_20_0 + xp_19_1
 + xp_19_0 + xp_12_1 + xp_12_0 + xp_2_1 + xp_0_0 <= 35516.1437016826
 r_15: + xp_131_1 + xp_131_0 + xp_126_2 + xp_125_0 + xp_124_1 + xp_124_0
 + xp_120_1 + xp_116_0 + xp_115_0 + xp_109_1 + xp_99_2 + xp_98_2
 + xp_96_1 + xp_94_3 + xp_94_0 + xp_92_1 + xp_90_0 + xp_89_0 + xp_86_0
 + xp_85_2 + xp_85_1 + xp_77_1 + xp_77_0 + xp_68_1 + xp_68_0 + xp_65_0
 + xp_58_1 + xp_51_0 + xp_48_1 + xp_42_1 + xp_42_0 + xp_38_0 + xp_36_0
 + xp_32_1 + xp_28_0 + xp_26_2 + xp_26_1 + xp_24_2 + xp_24_1 + xp_19_1
 + xp_12_0 + xp_11_1 + xp_0_0 <= 35651.3500710564
 r_16: + xp_128_0 + xp_123_0 + xp_108_2 + xp_108_0 + xp_78_4 + xp_78_2
 + xp_78_1 + xp_78_0 + xp_73_0 + xp_67_0 + xp_57_0 + xp_46_0 + xp_44_1
 + xp_44_0 + xp_40_0 + xp_22_0 + xp_18_0 + xp_13_0 + xp_6_0
 <= 39648.3971044467
 r_17: + xp_129_1 + xp_128_1 + xp_126_0 + xp_119_1 + xp_111_1 + xp_109_0
 + xp_97_0 + xp_95_0 + xp_91_1 + xp_90_2 + xp_81_1 + xp_80_1 + xp_79_1
 + xp_63_1 + xp_62_0 + xp_61_0 + xp_60_1 + xp_47_0 + xp_45_1 + xp_40_1
 + xp_22_1 + xp_18_1 + xp_17_1 + xp_13_1 + xp_9_0 + xp_4_1 + xp_1_0
 <= 34729.5900792284
 r_18: + xp_126_1 + xp_126_0 + xp_106_0 + xp_99_0 + xp_98_0 + xp_94_1
 + xp_92_0 + xp_85_0 + xp_68_0 + xp_58_0 + xp_48_0 + xp_32_0 + xp_30_0
 + xp_26_0 + xp_24_0 + xp_5_0 + xp_2_0 <= 35958.6563307494
 r_19: + xp_131_2 + xp_125_1 + xp_116_1 + xp_115_1 + xp_110_0 + xp_108_2
 + xp_106_1 + xp_99_1 + xp_98_1 + xp_94_2 + xp_86_1 + xp_85_3 + xp_78_0
 + xp_65_1 + xp_56_0 + xp_42_2 + xp_38_1 + xp_28_1 + xp_19_0 + xp_14_0
 + xp_12_1 + xp_11_0 + xp_3_0 + xp_2_1 <= 35958.6563307494
 r_20: + xp_129_0 + xp_128_2 + xp_123_1 + xp_119_2 + xp_119_0 + xp_112_0
 + xp_111_0 + xp_108_1 + xp_108_0 + xp_107_0 + xp_101_1 + xp_95_2
 + xp_95_1 + xp_91_2 + xp_91_0 + xp_82_2 + xp_81_2 + xp_81_0 + xp_80_0
 + xp_79_2 + xp_79_0 + xp_78_3 + xp_78_1 + xp_69_0 + xp_64_0 + xp_63_0
 + xp_60_0 + xp_50_0 + xp_49_0 + xp_45_0 + xp_40_2 + xp_18_3 + xp_18_2
 + xp_17_0 + xp_14_1 + xp_13_2 + xp_10_0 + xp_9_1 + xp_4_0
 <= 34729.5900792284
 r_21: + xp_124_1 + xp_113_0 + xp_105_1 + xp_99_2 + xp_99_1 + xp_86_1
 + xp_86_0 + xp_85_2 + xp_83_1 + xp_77_1 + xp_77_0 + xp_65_1 + xp_65_0
 + xp_58_1 + xp_41_1 + xp_38_1 + xp_38_0 + xp_30_2 + xp_26_2 + xp_24_2
 + xp_20_0 + xp_2_1 + xp_0_0 <= 35516.1437016826
 r_22: + xp_126_2 + xp_124_0 + xp_106_1 + xp_105_0 + xp_98_2 + xp_98_1
 + xp_94_3 + xp_94_2 + xp_94_0 + xp_92_1 + xp_85_3 + xp_85_1 + xp_83_0
 + xp_68_1 + xp_48_1 + xp_41_0 + xp_32_1 + xp_30_1 + xp_26_1 + xp_24_1
 <= 35516.1437016826
 r_23: + xp_128_2 + xp_128_1 + xp_128_0 + xp_119_2 + xp_119_1 + xp_117_0
 + xp_111_1 + xp_104_1 + xp_104_0 + xp_100_0 + xp_95_1 + xp_95_0
 + xp_91_1 + xp_91_0 + xp_84_0 + xp_82_1 + xp_82_0 + xp_81_2 + xp_81_1
 + xp_80_1 + xp_80_0 + xp_79_1 + xp_79_0 + xp_78_4 + xp_78_2 + xp_73_0
 + xp_60_1 + xp_60_0 + xp_53_1 + xp_50_1 + xp_46_0 + xp_45_1 + xp_44_1
 + xp_44_0 + xp_40_2 + xp_40_1 + xp_40_0 + xp_34_1 + xp_21_0 + xp_18_2
 + xp_18_1 + xp_18_0 + xp_15_0 + xp_9_1 + xp_9_0 + xp_4_1 + xp_3_2
 + xp_3_1 <= 35516.1437016826
 r_24: + xp_128_0 + xp_126_1 + xp_103_0 + xp_94_3 + xp_94_2 + xp_94_1
 + xp_90_1 + xp_61_1 + xp_40_0 + xp_39_0 + xp_38_1 + xp_22_0 + xp_18_0
 + xp_13_0 + xp_12_1 + xp_1_1 <= 39648.3971044467
 r_25: + xp_131_1 + xp_127_0 + xp_126_2 + xp_126_0 + xp_94_0 + xp_90_2
 + xp_90_0 + xp_89_0 + xp_77_0 + xp_74_0 + xp_61_0 + xp_42_0 + xp_38_0
 + xp_32_1 + xp_24_1 + xp_12_0 + xp_1_0 <= 39648.3971044467
 r_26: + xp_128_2 + xp_128_1 + xp_123_1 + xp_121_0 + xp_112_0 + xp_108_1
 + xp_107_0 + xp_81_2 + xp_81_1 + xp_81_0 + xp_79_2 + xp_79_1 + xp_79_0
 + xp_78_3 + xp_67_1 + xp_64_0 + xp_60_1 + xp_60_0 + xp_57_1 + xp_47_0
 + xp_40_2 + xp_40_1 + xp_37_0 + xp_29_0 + xp_25_0 + xp_22_1 + xp_18_3
 + xp_18_2 + xp_18_1 + xp_17_1 + xp_17_0 + xp_13_2 + xp_13_1 + xp_4_1
 + xp_4_0 <= 34729.5900792284
 r_27: + xp_131_0 + xp_127_1 + xp_125_0 + xp_120_1 + xp_116_0 + xp_115_0
 + xp_108_0 + xp_101_1 + xp_99_2 + xp_98_2 + xp_96_1 + xp_94_3 + xp_92_1
 + xp_86_0 + xp_85_2 + xp_85_1 + xp_82_2 + xp_78_1 + xp_77_1 + xp_72_0
 + xp_67_0 + xp_65_0 + xp_58_1 + xp_57_0 + xp_52_0 + xp_50_0 + xp_48_1
 + xp_42_1 + xp_28_0 + xp_26_2 + xp_26_1 + xp_24_2 + xp_23_0 + xp_19_1
 + xp_14_1 + xp_11_1 <= 34729.5900792284
 r_28: + xp_131_2 + xp_126_1 + xp_126_0 + xp_125_1 + xp_120_0 + xp_116_1
 + xp_115_1 + xp_109_0 + xp_99_1 + xp_99_0 + xp_98_1 + xp_98_0 + xp_96_0
 + xp_94_2 + xp_94_1 + xp_92_0 + xp_90_2 + xp_90_1 + xp_86_1 + xp_85_3
 + xp_85_0 + xp_75_0 + xp_65_1 + xp_58_0 + xp_54_0 + xp_48_0 + xp_42_2
 + xp_38_1 + xp_32_0 + xp_28_1 + xp_26_0 + xp_24_0 + xp_19_0 + xp_12_1
 + xp_11_0 <= 34729.5900792284
 r_29: + xp_129_1 + xp_129_0 + xp_95_2 + xp_95_1 + xp_95_0 + xp_93_0
 + xp_87_0 + xp_71_0 + xp_62_0 + xp_49_0 + xp_45_1 + xp_45_0 + xp_10_0
 + xp_9_1 + xp_9_0 + xp_1_1 + xp_1_0 <= 34729.5900792284
 r_30: + xp_125_1 + xp_125_0 + xp_121_0 + xp_102_0 + xp_99_2 + xp_99_1
 + xp_99_0 + xp_96_1 + xp_96_0 + xp_92_1 + xp_92_0 + xp_57_1 + xp_57_0
 + xp_37_0 + xp_26_2 + xp_26_1 + xp_26_0 + xp_23_0 + xp_11_1 + xp_11_0
 <= 34729.5900792284

Bounds
 0 <= xp_0_0 <= 225.263792800458
 0 <= xp_1_0 <= 99.5978780618145
 0 <= xp_1_1 <= 74.6984085463609
 0 <= xp_2_0 <= 15.6857668969193
 0 <= xp_2_1 <= 94.114601381516
 0 <= xp_3_0 <= 49.7270272055919
 0 <= xp_3_1 <= 99.4540544111837
 0 <= xp_3_2 <= 24.8635136027959
 0 <= xp_4_0 <= 645.534477899923
 0 <= xp_4_1 <= 107.589079649987
 0 <= xp_5_0 <= 1034.26283862043
 0 <= xp_6_0 <= 1710.68344549331
 0 <= xp_7_0 <= 609.344851809953
 0 <= xp_8_0 <= 1441.31073684002
 0 <= xp_9_0 <= 73.7995107299185
 0 <= xp_9_1 <= 29.5198042919674
 0 <= xp_10_0 <= 52.3518088296036
 0 <= xp_11_0 <= 16.9891687307608
 0 <= xp_11_1 <= 22.6522249743477
 0 <= xp_12_0 <= 1691.52793302492
 0 <= xp_12_1 <= 281.92132217082
 0 <= xp_13_0 <= 68.7297270451835
 0 <= xp_13_1 <= 137.459454090367
 0 <= xp_13_2 <= 34.3648635225918
 0 <= xp_14_0 <= 59.9924402693637
 0 <= xp_14_1 <= 149.981100673409
 0 <= xp_15_0 <= 484.128385979531
 0 <= xp_16_0 <= 2521.25556249205
 0 <= xp_17_0 <= 162.05329834823
 0 <= xp_17_1 <= 121.539973761173
 0 <= xp_18_0 <= 97.9259281232317
 0 <= xp_18_1 <= 146.888892184848
 0 <= xp_18_2 <= 48.9629640616158
 0 <= xp_18_3 <= 48.9629640616158
 0 <= xp_19_0 <= 433.14290183092
 0 <= xp_19_1 <= 577.523869107893
 0 <= xp_20_0 <= 122.447860555779
 0 <= xp_21_0 <= 262.073658383773
 0 <= xp_22_0 <= 336.097893567802
 0 <= xp_22_1 <= 840.244733919504
 0 <= xp_23_0 <= 49.646126402112
 0 <= xp_24_0 <= 185.856112527624
 0 <= xp_24_1 <= 92.9280562638121
 0 <= xp_24_2 <= 46.464028131906
 0 <= xp_25_0 <= 552.651366526933
 0 <= xp_26_0 <= 8.37772764924288
 0 <= xp_26_1 <= 4.18886382462144
 0 <= xp_26_2 <= 2.09443191231072
 0 <= xp_27_0 <= 276.572880162988
 0 <= xp_27_1 <= 46.0954800271647
 0 <= xp_28_0 <= 455.29174402806
 0 <= xp_28_1 <= 182.116697611224
 0 <= xp_29_0 <= 2337.58377165838
 0 <= xp_30_0 <= 50.0326524631823
 0 <= xp_30_1 <= 100.065304926365
 0 <= xp_30_2 <= 25.0163262315911
 0 <= xp_31_0 <= 182.035796807744
 0 <= xp_32_0 <= 1535.63208471932
 0 <= xp_32_1 <= 614.252833887728
 0 <= xp_33_0 <= 7697.1631234362
 0 <= xp_34_0 <= 69.7005366869413
 0 <= xp_34_1 <= 418.203220121648
 0 <= xp_35_0 <= 249.300320412127
 0 <= xp_36_0 <= 304.609503057825
 0 <= xp_37_0 <= 348.466727522049
 0 <= xp_38_0 <= 274.091922189607
 0 <= xp_38_1 <= 45.6819870316012
 0 <= xp_39_0 <= 1502.72343565937
 0 <= xp_40_0 <= 231.717879122514
 0 <= xp_40_1 <= 463.435758245028
 0 <= xp_40_2 <= 115.858939561257
 0 <= xp_41_0 <= 54.5181525672297
 0 <= xp_41_1 <= 21.8072610268919
 0 <= xp_42_0 <= 247.880061862148
 0 <= xp_42_1 <= 61.9700154655369
 0 <= xp_42_2 <= 123.940030931074
 0 <= xp_43_0 <= 469.970745370564
 0 <= xp_44_0 <= 375.43366201532
 0 <= xp_44_1 <= 62.5722770025533
 0 <= xp_45_0 <= 29.0343994710885
 0 <= xp_45_1 <= 11.6137597884354
 0 <= xp_46_0 <= 1533.49270791619
 0 <= xp_47_0 <= 839.516626688186
 0 <= xp_48_0 <= 2379.50836581725
 0 <= xp_48_1 <= 396.584727636209
 0 <= xp_49_0 <= 84.1278466408413
 0 <= xp_50_0 <= 428.091096102514
 0 <= xp_50_1 <= 321.068322076885
 0 <= xp_51_0 <= 677.741986663053
 0 <= xp_52_0 <= 632.689228102961
 0 <= xp_53_0 <= 129.576120240167
 0 <= xp_53_1 <= 51.830448096067
 0 <= xp_54_0 <= 3527.8952712132
 0 <= xp_55_0 <= 1132.04494309303
 0 <= xp_56_0 <= 91.4898197575043
 0 <= xp_57_0 <= 112.470094793269
 0 <= xp_57_1 <= 84.3525710949519
 0 <= xp_58_0 <= 3101.91658497933
 0 <= xp_58_1 <= 1240.76663399173
 0 <= xp_59_0 <= 10167.1365655002
 0 <= xp_60_0 <= 462.482926559599
 0 <= xp_60_1 <= 184.99317062384
 0 <= xp_61_0 <= 1320.91236330573
 0 <= xp_61_1 <= 990.684272479299
 0 <= xp_62_0 <= 125.342311524724
 0 <= xp_63_0 <= 71.9477812280472
 0 <= xp_63_1 <= 53.9608359210354
 0 <= xp_64_0 <= 949.820377743829
 0 <= xp_65_0 <= 356.412984219399
 0 <= xp_65_1 <= 142.56519368776
 0 <= xp_66_0 <= 1604.72137089108
 0 <= xp_67_0 <= 220.841215543561
 0 <= xp_67_1 <= 165.630911657671
 0 <= xp_68_0 <= 402.094971251
 0 <= xp_68_1 <= 1005.2374281275
 0 <= xp_69_0 <= 1641.59415932155
 0 <= xp_70_0 <= 603.367181330611
 0 <= xp_71_0 <= 67.7049835344392
 0 <= xp_72_0 <= 572.220371990883
 0 <= xp_73_0 <= 881.674934279333
 0 <= xp_74_0 <= 910.556521121626
 0 <= xp_75_0 <= 1685.01092385571
 0 <= xp_76_0 <= 1644.9919930677
 0 <= xp_77_0 <= 390.391321680921
 0 <= xp_77_1 <= 156.156528672368
 0 <= xp_78_0 <= 3820.03706155697
 0 <= xp_78_1 <= 3820.03706155697
 0 <= xp_78_2 <= 11460.1111846709
 0 <= xp_78_3 <= 3820.03706155697
 0 <= xp_78_4 <= 3820.03706155697
 0 <= xp_79_0 <= 581.694754976186
 0 <= xp_79_1 <= 290.847377488093
 0 <= xp_79_2 <= 145.423688744046
 0 <= xp_80_0 <= 153.891306174934
 0 <= xp_80_1 <= 61.5565224699734
 0 <= xp_81_0 <= 142.457325949787
 0 <= xp_81_1 <= 71.2286629748933
 0 <= xp_81_2 <= 35.6143314874467
 0 <= xp_82_0 <= 150.026045564231
 0 <= xp_82_1 <= 30.0052091128463
 0 <= xp_82_2 <= 30.0052091128463
 0 <= xp_83_0 <= 412.70196548502
 0 <= xp_83_1 <= 68.7836609141701
 0 <= xp_84_0 <= 850.528124939605
 0 <= xp_85_0 <= 111.589174933156
 0 <= xp_85_1 <= 167.383762399734
 0 <= xp_85_2 <= 55.7945874665778
 0 <= xp_85_3 <= 55.7945874665778
 0 <= xp_86_0 <= 117.036495700796
 0 <= xp_86_1 <= 46.8145982803186
 0 <= xp_87_0 <= 135.032429985973
 0 <= xp_88_0 <= 348.358859784076
 0 <= xp_88_1 <= 58.0598099640126
 0 <= xp_89_0 <= 2122.63932579068
 0 <= xp_90_0 <= 14817.1169920003
 0 <= xp_90_1 <= 2963.42339840005
 0 <= xp_90_2 <= 2963.42339840005
 0 <= xp_91_0 <= 743.190736678222
 0 <= xp_91_1 <= 1114.78610501733
 0 <= xp_91_2 <= 743.190736678222
 0 <= xp_92_0 <= 54.7968108903268
 0 <= xp_92_1 <= 9.13280181505447
 0 <= xp_93_0 <= 124.713083053214
 0 <= xp_94_0 <= 129.513197393017
 0 <= xp_94_1 <= 32.3782993482541
 0 <= xp_94_2 <= 32.3782993482541
 0 <= xp_94_3 <= 32.3782993482541
 0 <= xp_95_0 <= 33.5109105969715
 0 <= xp_95_1 <= 16.7554552984858
 0 <= xp_95_2 <= 8.37772764924288
 0 <= xp_96_0 <= 94.6000062023949
 0 <= xp_96_1 <= 15.7666677003992
 0 <= xp_97_0 <= 504.389542762142
 0 <= xp_98_0 <= 58.6261155883713
 0 <= xp_98_1 <= 39.0840770589142
 0 <= xp_98_2 <= 39.0840770589142
 0 <= xp_99_0 <= 2.2382555629415
 0 <= xp_99_1 <= 8.95302225176599
 0 <= xp_99_2 <= 4.476511125883
 0 <= xp_100_0 <= 481.296857857738
 0 <= xp_101_0 <= 204.94870214886
 0 <= xp_101_1 <= 34.15811702481
 0 <= xp_102_0 <= 71.732045752101
 0 <= xp_103_0 <= 1377.75866121755
 0 <= xp_104_0 <= 108.191341187004
 0 <= xp_104_1 <= 18.0318901978339
 0 <= xp_105_0 <= 1189.24181115325
 0 <= xp_105_1 <= 198.206968525542
 0 <= xp_106_0 <= 16.9891687307608
 0 <= xp_106_1 <= 22.6522249743477
 0 <= xp_107_0 <= 430.392274512606
 0 <= xp_108_0 <= 116.074675037203
 0 <= xp_108_1 <= 580.373375186015
 0 <= xp_108_2 <= 116.074675037203
 0 <= xp_109_0 <= 660.779784866785
 0 <= xp_109_1 <= 264.311913946714
 0 <= xp_110_0 <= 127.481688327857
 0 <= xp_111_0 <= 2399.19422799734
 0 <= xp_111_1 <= 399.865704666223
 0 <= xp_112_0 <= 4479.91794860731
 0 <= xp_113_0 <= 407.110821066749
 0 <= xp_114_0 <= 2294.67038990142
 0 <= xp_115_0 <= 90.6088998973908
 0 <= xp_115_1 <= 120.811866529854
 0 <= xp_116_0 <= 65.5026838841554
 0 <= xp_116_1 <= 87.3369118455406
 0 <= xp_117_0 <= 1859.68474754679
 0 <= xp_118_0 <= 3019.03820630334
 0 <= xp_119_0 <= 34.3378965880985
 0 <= xp_119_1 <= 17.1689482940492
 0 <= xp_119_2 <= 8.58447414702462
 0 <= xp_120_0 <= 1779.70980881792
 0 <= xp_120_1 <= 296.618301469653
 0 <= xp_121_0 <= 72.2983513764597
 0 <= xp_122_0 <= 2176.94174288196
 0 <= xp_123_0 <= 351.244321774856
 0 <= xp_123_1 <= 140.497728709942
 0 <= xp_124_0 <= 112.937521657819
 0 <= xp_124_1 <= 18.8229202763032
 0 <= xp_125_0 <= 14.9217037529433
 0 <= xp_125_1 <= 11.1912778147075
 0 <= xp_126_0 <= 3469.66467066406
 0 <= xp_126_1 <= 10408.9940119922
 0 <= xp_126_2 <= 10408.9940119922
 0 <= xp_127_0 <= 236.580916309467
 0 <= xp_127_1 <= 315.441221745956
 0 <= xp_128_0 <= 55.5249181216451
 0 <= xp_128_1 <= 166.574754364935
 0 <= xp_128_2 <= 166.574754364935
 0 <= xp_129_0 <= 26.7871549299826
 0 <= xp_129_1 <= 20.0903661974869
 0 <= xp_130_0 <= 386.283358659779
 0 <= xp_131_0 <= 209.928596051951
 0 <= xp_131_1 <= 209.928596051951
 0 <= xp_131_2 <= 314.892894077926

End
